************************************************************************
file with basedata            : n/a
initial value random generator: n/a
************************************************************************
projects                      :  1
jobs (incl. supersource/sink ):  122
horizon                       :  684
RESOURCES
  - renewable                 :  4   R
  - nonrenewable              :  0   N
  - doubly constrained        :  0   D
************************************************************************
PROJECT INFORMATION:
pronr.  #jobs rel.date duedate tardcost  MPM-Time
    1    120      0       98       80       98
************************************************************************
PRECEDENCE RELATIONS:
jobnr.    #modes  #successors   successors
   1        1          3           2   3   4
   2        1          3          21  63  84
   3        1          3           5   8  12
   4        1          3           9  13  17
   5        1          3           6  34  67
   6        1          3           7  11  71
   7        1          3          31  42  55
   8        1          3          14  19  25
   9        1          3          10  35  62
  10        1          2          50  72
  11        1          3          18  32  38
  12        1          3          24  49  85
  13        1          3          16  33  68
  14        1          3          15  20  23
  15        1          3          28  84  90
  16        1          3          22  25  44
  17        1          3          30  56  73
  18        1          3          39  47  57
  19        1          1          66
  20        1          3          54  57 112
  21        1          2          36  45
  22        1          3          27  37  66
  23        1          3          26  48  97
  24        1          3          29  65  92
  25        1          3          41  77  78
  26        1          3          59  82 111
  27        1          3          29  32  46
  28        1          1          91
  29        1          3          43  48  64
  30        1          3          34  42  53
  31        1          3          36  74 100
  32        1          2          65 105
  33        1          1          40
  34        1          1         102
  35        1          3          38  45  66
  36        1          3          52  56  60
  37        1          3          61  83 119
  38        1          3          39  72 109
  39        1          3          51  79 111
  40        1          2          48  70
  41        1          2          59  89
  42        1          3          51  80  88
  43        1          3          58  71  73
  44        1          3          51  54 106
  45        1          3          71  80 103
  46        1          2          77  84
  47        1          2          62 115
  48        1          2          52  80
  49        1          2          57 110
  50        1          2          59 101
  51        1          2          61  98
  52        1          3          61  62 109
  53        1          3          54  87  99
  54        1          3          69  81  98
  55        1          2          78  88
  56        1          2          78  94
  57        1          2          94 121
  58        1          2          75  76
  59        1          3          69  73  93
  60        1          3          82  91 119
  61        1          3          69 107 108
  62        1          2         108 113
  63        1          3          64  72 100
  64        1          2          70  74
  65        1          3          76  82 113
  66        1          3          70  85  92
  67        1          3          75  95 108
  68        1          2          76 106
  69        1          2          86 117
  70        1          3          81  86 104
  71        1          2          89  95
  72        1          2          74  77
  73        1          1         118
  74        1          2          79  87
  75        1          2          88  91
  76        1          2          87  98
  77        1          2          79  92
  78        1          3          83  85  86
  79        1          2          83  97
  80        1          3          81  90 101
  81        1          1         105
  82        1          1          93
  83        1          1         103
  84        1          1         112
  85        1          3          90  96 101
  86        1          2          95 115
  87        1          1          96
  88        1          1          89
  89        1          3          96 100 119
  90        1          1          99
  91        1          3          93  94 114
  92        1          1         116
  93        1          1          99
  94        1          1          97
  95        1          1         113
  96        1          1         102
  97        1          2         102 105
  98        1          1         103
  99        1          1         104
 100        1          1         104
 101        1          1         111
 102        1          1         107
 103        1          1         110
 104        1          2         106 110
 105        1          2         107 116
 106        1          1         109
 107        1          1         115
 108        1          2         117 118
 109        1          1         118
 110        1          1         117
 111        1          1         112
 112        1          2         114 116
 113        1          1         114
 114        1          1         120
 115        1          1         120
 116        1          1         120
 117        1          1         121
 118        1          1         121
 119        1          1         122
 120        1          1         122
 121        1          1         122
 122        1          0        
************************************************************************
REQUESTS/DURATIONS:
jobnr. mode duration  R 1  R 2  R 3  R 4
------------------------------------------------------------------------
  1      1     0    
  2      1     9       5   5   5   0   5   5   5   5   5
                       7   7   7   0   7   7   7   7   7
                       5   5   5   0   5   5   5   5   5
                       1   1   1   0   1   1   1   1   1
  3      1     8       2   2   2   2   2   2   2   2
                       3   3   3   3   3   3   3   3
                       7   7   7   7   7   7   7   7
                      10  10  10  10  10  10  10  10
  4      1     2       3   3
                      10  10
                       7   7
                       6   6
  5      1    10       2   2   2   2   2   2   2   2   2   2
                       8   8   8   8   8   8   8   8   8   8
                       4   4   4   4   4   4   4   4   4   4
                       7   7   7   7   7   7   7   7   7   7
  6      1     9       2   0   2   2   2   2   0   2   2
                       4   0   4   4   4   4   0   4   4
                      10   0  10  10  10  10   0  10  10
                       7   0   7   7   7   7   0   7   7
  7      1     2       4   4
                      10  10
                      10  10
                       1   1
  8      1     7       1   1   1   1   1   1   1
                       6   6   6   6   6   6   6
                       2   2   2   2   2   2   2
                       9   9   9   9   9   9   9
  9      1     4       3   3   3   3
                      10  10  10  10
                       6   6   6   6
                       7   7   7   7
 10      1    10       9   9   9   9   9   9   9   9   9   9
                       2   2   2   2   2   2   2   2   2   2
                       3   3   3   3   3   3   3   3   3   3
                       4   4   4   4   4   4   4   4   4   4
 11      1     3      10  10  10
                       8   8   8
                       1   1   1
                       4   4   4
 12      1     4       2   2   2   2
                       7   7   7   7
                       9   9   9   9
                       2   2   2   2
 13      1     3       0   2   2
                       0   2   2
                       0   2   2
                       0   7   7
 14      1     7       2   2   0   2   2   2   2
                       8   8   0   8   8   8   8
                       7   7   0   7   7   7   7
                       3   3   0   3   3   3   3
 15      1     3       0   1   0
                       0   3   0
                       0   5   0
                       0   3   0
 16      1     2       3   0
                       4   0
                      10   0
                       6   0
 17      1    10       6   6   6   6   6   6   6   6   6   6
                       4   4   4   4   4   4   4   4   4   4
                       5   5   5   5   5   5   5   5   5   5
                       9   9   9   9   9   9   9   9   9   9
 18      1     8       1   1   1   1   1   1   1   0
                       1   1   1   1   1   1   1   0
                       8   8   8   8   8   8   8   0
                       9   9   9   9   9   9   9   0
 19      1     8       2   2   2   2   2   2   0   2
                       9   9   9   9   9   9   0   9
                       1   1   1   1   1   1   0   1
                       1   1   1   1   1   1   0   1
 20      1     4      10  10   0  10
                       6   6   0   6
                       2   2   0   2
                       9   9   0   9
 21      1     8       1   1   1   1   1   1   1   1
                       3   3   3   3   3   3   3   3
                       2   2   2   2   2   2   2   2
                       5   5   5   5   5   5   5   5
 22      1     7       6   6   6   6   6   6   6
                       4   4   4   4   4   4   4
                       2   2   2   2   2   2   2
                      10  10  10  10  10  10  10
 23      1     6       0  10  10   0  10  10
                       0   3   3   0   3   3
                       0   5   5   0   5   5
                       0   3   3   0   3   3
 24      1     8       8   8   8   8   8   8   8   8
                      10  10  10  10  10  10  10  10
                       3   3   3   3   3   3   3   3
                       5   5   5   5   5   5   5   5
 25      1     4       0   7   7   7
                       0   3   3   3
                       0   1   1   1
                       0   1   1   1
 26      1     2       1   1
                       4   4
                       5   5
                       3   3
 27      1    10       5   5   0   5   5   5   5   5   5   5
                       6   6   0   6   6   6   6   6   6   6
                       7   7   0   7   7   7   7   7   7   7
                       9   9   0   9   9   9   9   9   9   9
 28      1     5       6   6   6   6   6
                      10  10  10  10  10
                       4   4   4   4   4
                       8   8   8   8   8
 29      1     9       7   7   7   0   0   7   7   0   7
                       6   6   6   0   0   6   6   0   6
                       1   1   1   0   0   1   1   0   1
                       7   7   7   0   0   7   7   0   7
 30      1     8       7   7   7   7   7   7   7   7
                       6   6   6   6   6   6   6   6
                       8   8   8   8   8   8   8   8
                       4   4   4   4   4   4   4   4
 31      1     5       5   5   5   5   5
                       8   8   8   8   8
                       1   1   1   1   1
                       5   5   5   5   5
 32      1     8       5   5   5   5   5   0   5   5
                       6   6   6   6   6   0   6   6
                       8   8   8   8   8   0   8   8
                       2   2   2   2   2   0   2   2
 33      1     6       3   0   3   3   3   3
                       9   0   9   9   9   9
                       4   0   4   4   4   4
                       5   0   5   5   5   5
 34      1     8       3   3   3   3   0   3   3   3
                       3   3   3   3   0   3   3   3
                       5   5   5   5   0   5   5   5
                       9   9   9   9   0   9   9   9
 35      1     5       3   3   3   3   3
                       7   7   7   7   7
                      10  10  10  10  10
                       1   1   1   1   1
 36      1    10       3   3   3   3   3   3   3   3   3   0
                       5   5   5   5   5   5   5   5   5   0
                       6   6   6   6   6   6   6   6   6   0
                       8   8   8   8   8   8   8   8   8   0
 37      1    10      10   0  10  10  10  10   0  10  10  10
                       9   0   9   9   9   9   0   9   9   9
                       2   0   2   2   2   2   0   2   2   2
                       5   0   5   5   5   5   0   5   5   5
 38      1     9       2   2   2   2   0   2   2   2   2
                       9   9   9   9   0   9   9   9   9
                       7   7   7   7   0   7   7   7   7
                       4   4   4   4   0   4   4   4   4
 39      1     9       8   8   8   8   8   8   8   8   8
                      10  10  10  10  10  10  10  10  10
                       4   4   4   4   4   4   4   4   4
                       4   4   4   4   4   4   4   4   4
 40      1    10       3   3   3   3   3   3   3   3   3   3
                       8   8   8   8   8   8   8   8   8   8
                       4   4   4   4   4   4   4   4   4   4
                       5   5   5   5   5   5   5   5   5   5
 41      1     7       1   1   1   1   1   1   1
                       8   8   8   8   8   8   8
                       8   8   8   8   8   8   8
                       7   7   7   7   7   7   7
 42      1     7       9   9   9   9   9   9   9
                       6   6   6   6   6   6   6
                       3   3   3   3   3   3   3
                       8   8   8   8   8   8   8
 43      1     9       7   7   7   7   7   7   7   7   7
                       8   8   8   8   8   8   8   8   8
                       6   6   6   6   6   6   6   6   6
                       7   7   7   7   7   7   7   7   7
 44      1     6       9   9   9   9   9   9
                       4   4   4   4   4   4
                       2   2   2   2   2   2
                       8   8   8   8   8   8
 45      1     3       3   3   3
                      10  10  10
                       4   4   4
                       7   7   7
 46      1     4       1   0   1   1
                       9   0   9   9
                       6   0   6   6
                       7   0   7   7
 47      1     6       7   7   7   7   0   0
                       7   7   7   7   0   0
                       9   9   9   9   0   0
                       1   1   1   1   0   0
 48      1     4       9   9   9   9
                       2   2   2   2
                      10  10  10  10
                       3   3   3   3
 49      1     7       9   9   9   9   9   9   9
                       6   6   6   6   6   6   6
                       7   7   7   7   7   7   7
                       6   6   6   6   6   6   6
 50      1     2       5   5
                       1   1
                       7   7
                       1   1
 51      1     9      10  10  10  10  10  10  10  10  10
                       1   1   1   1   1   1   1   1   1
                      10  10  10  10  10  10  10  10  10
                       7   7   7   7   7   7   7   7   7
 52      1     5       7   7   7   7   7
                       3   3   3   3   3
                       7   7   7   7   7
                       5   5   5   5   5
 53      1     4       1   1   0   1
                       2   2   0   2
                      10  10   0  10
                       8   8   0   8
 54      1     1       5
                       7
                       9
                       7
 55      1     1       9
                       3
                      10
                       4
 56      1     5       4   4   4   4   0
                       2   2   2   2   0
                       7   7   7   7   0
                       4   4   4   4   0
 57      1     9       2   2   2   2   2   2   2   2   2
                       9   9   9   9   9   9   9   9   9
                       5   5   5   5   5   5   5   5   5
                       5   5   5   5   5   5   5   5   5
 58      1     2       0   0
                       0   0
                       0   0
                       0   0
 59      1     9       0   0   0   5   5   5   5   5   5
                       0   0   0   6   6   6   6   6   6
                       0   0   0   2   2   2   2   2   2
                       0   0   0  10  10  10  10  10  10
 60      1     4       0   5   5   5
                       0   5   5   5
                       0   6   6   6
                       0   4   4   4
 61      1     2       6   6
                       3   3
                       1   1
                      10  10
 62      1     4       7   7   7   7
                       7   7   7   7
                       3   3   3   3
                       8   8   8   8
 63      1     5       1   1   1   1   1
                       2   2   2   2   2
                       1   1   1   1   1
                       3   3   3   3   3
 64      1     8       3   3   3   0   3   0   3   3
                       7   7   7   0   7   0   7   7
                      10  10  10   0  10   0  10  10
                       8   8   8   0   8   0   8   8
 65      1     3       3   3   3
                       4   4   4
                       5   5   5
                       2   2   2
 66      1     2       2   2
                       9   9
                       7   7
                       1   1
 67      1     2       1   1
                       3   3
                       9   9
                       8   8
 68      1     2       7   0
                       6   0
                       8   0
                      10   0
 69      1     2       4   0
                       2   0
                       9   0
                       2   0
 70      1    10       6   6   6   6   6   6   6   6   6   0
                       1   1   1   1   1   1   1   1   1   0
                      10  10  10  10  10  10  10  10  10   0
                       4   4   4   4   4   4   4   4   4   0
 71      1     9       4   4   4   0   4   4   4   0   4
                       4   4   4   0   4   4   4   0   4
                       8   8   8   0   8   8   8   0   8
                       2   2   2   0   2   2   2   0   2
 72      1     7       5   5   5   5   5   5   5
                       2   2   2   2   2   2   2
                       3   3   3   3   3   3   3
                       2   2   2   2   2   2   2
 73      1     1       6
                       7
                       3
                       8
 74      1     4       2   2   2   2
                       1   1   1   1
                       5   5   5   5
                       1   1   1   1
 75      1     5       4   4   4   4   4
                      10  10  10  10  10
                       8   8   8   8   8
                       5   5   5   5   5
 76      1     8       2   2   2   2   2   2   2   2
                       7   7   7   7   7   7   7   7
                       9   9   9   9   9   9   9   9
                       1   1   1   1   1   1   1   1
 77      1     2       9   9
                       7   7
                       7   7
                       7   7
 78      1     1       6
                       1
                      10
                       3
 79      1     7       2   2   2   0   2   2   0
                       1   1   1   0   1   1   0
                       3   3   3   0   3   3   0
                       1   1   1   0   1   1   0
 80      1     9       4   0   4   4   4   4   4   4   4
                       8   0   8   8   8   8   8   8   8
                       4   0   4   4   4   4   4   4   4
                       4   0   4   4   4   4   4   4   4
 81      1    10       0   4   4   4   4   4   4   4   4   4
                       0   3   3   3   3   3   3   3   3   3
                       0   8   8   8   8   8   8   8   8   8
                       0   6   6   6   6   6   6   6   6   6
 82      1     2       1   1
                      10  10
                       4   4
                       3   3
 83      1     1       1
                       8
                       5
                       5
 84      1    10       3   3   3   3   3   0   3   3   3   3
                       3   3   3   3   3   0   3   3   3   3
                       7   7   7   7   7   0   7   7   7   7
                       6   6   6   6   6   0   6   6   6   6
 85      1     2       5   5
                       7   7
                       5   5
                       2   2
 86      1     3       8   8   8
                       2   2   2
                       7   7   7
                       8   8   8
 87      1     2       1   1
                       3   3
                       4   4
                       8   8
 88      1     6       4   4   4   4   4   4
                       2   2   2   2   2   2
                       2   2   2   2   2   2
                       8   8   8   8   8   8
 89      1     9       0   5   5   5   5   5   5   5   5
                       0   7   7   7   7   7   7   7   7
                       0   2   2   2   2   2   2   2   2
                       0   4   4   4   4   4   4   4   4
 90      1     2      10  10
                       2   2
                       3   3
                       5   5
 91      1     3       2   2   2
                       6   6   6
                       6   6   6
                       2   2   2
 92      1     8       3   3   3   0   3   3   3   3
                       3   3   3   0   3   3   3   3
                       9   9   9   0   9   9   9   9
                       3   3   3   0   3   3   3   3
 93      1     7       9   9   9   9   9   9   0
                      10  10  10  10  10  10   0
                       8   8   8   8   8   8   0
                       8   8   8   8   8   8   0
 94      1     9       9   9   9   9   9   9   9   9   9
                       1   1   1   1   1   1   1   1   1
                       3   3   3   3   3   3   3   3   3
                       5   5   5   5   5   5   5   5   5
 95      1    10       8   0   8   8   8   0   8   0   8   8
                       7   0   7   7   7   0   7   0   7   7
                       4   0   4   4   4   0   4   0   4   4
                       4   0   4   4   4   0   4   0   4   4
 96      1    10       4   4   4   4   4   4   4   4   4   4
                       8   8   8   8   8   8   8   8   8   8
                       8   8   8   8   8   8   8   8   8   8
                       4   4   4   4   4   4   4   4   4   4
 97      1     2       4   4
                       4   4
                       9   9
                       5   5
 98      1     8       4   4   4   4   4   4   4   4
                       2   2   2   2   2   2   2   2
                       3   3   3   3   3   3   3   3
                       7   7   7   7   7   7   7   7
 99      1    10      10  10  10  10  10  10   0  10  10  10
                       3   3   3   3   3   3   0   3   3   3
                       8   8   8   8   8   8   0   8   8   8
                       4   4   4   4   4   4   0   4   4   4
100      1    10       3   3   3   3   3   3   3   3   3   0
                       8   8   8   8   8   8   8   8   8   0
                       3   3   3   3   3   3   3   3   3   0
                       3   3   3   3   3   3   3   3   3   0
101      1     7       5   5   5   5   5   5   5
                       3   3   3   3   3   3   3
                       6   6   6   6   6   6   6
                       4   4   4   4   4   4   4
102      1     6       4   4   4   4   4   4
                       5   5   5   5   5   5
                       3   3   3   3   3   3
                       9   9   9   9   9   9
103      1     7       9   9   9   9   9   9   9
                       6   6   6   6   6   6   6
                       9   9   9   9   9   9   9
                       7   7   7   7   7   7   7
104      1     7       8   8   8   0   8   8   0
                      10  10  10   0  10  10   0
                       7   7   7   0   7   7   0
                       7   7   7   0   7   7   0
105      1    10       4   4   0   0   0   4   4   4   4   4
                       8   8   0   0   0   8   8   8   8   8
                       5   5   0   0   0   5   5   5   5   5
                       6   6   0   0   0   6   6   6   6   6
106      1     1       7
                       8
                       8
                       5
107      1     8       2   2   2   2   2   2   2   2
                       2   2   2   2   2   2   2   2
                       5   5   5   5   5   5   5   5
                       3   3   3   3   3   3   3   3
108      1     6       9   9   0   9   9   9
                       6   6   0   6   6   6
                       5   5   0   5   5   5
                       6   6   0   6   6   6
109      1     8       1   1   1   1   1   1   1   1
                       7   7   7   7   7   7   7   7
                       7   7   7   7   7   7   7   7
                       6   6   6   6   6   6   6   6
110      1     6       5   5   5   5   5   5
                      10  10  10  10  10  10
                       1   1   1   1   1   1
                      10  10  10  10  10  10
111      1     1       0
                       0
                       0
                       0
112      1     9       8   8   8   8   0   8   8   8   8
                       8   8   8   8   0   8   8   8   8
                       5   5   5   5   0   5   5   5   5
                       2   2   2   2   0   2   2   2   2
113      1     5       9   9   9   9   9
                      10  10  10  10  10
                       9   9   9   9   9
                       2   2   2   2   2
114      1     3       3   3   3
                       5   5   5
                       4   4   4
                      10  10  10
115      1     8       0  10  10  10   0  10  10   0
                       0   5   5   5   0   5   5   0
                       0   8   8   8   0   8   8   0
                       0   2   2   2   0   2   2   0
116      1     2       0   0
                       0   0
                       0   0
                       0   0
117      1     2       6   6
                       6   6
                       1   1
                       8   8
118      1     1      10
                       8
                       5
                       1
119      1     3       6   6   0
                       8   8   0
                       7   7   0
                       1   1   0
120      1     2       4   4
                       3   3
                      10  10
                       4   4
121      1     1       1
                       5
                       4
                       1
122      1     0    
************************************************************************
RESOURCEAVAILABILITIES:
  R 1  R 2  R 3  R 4

  27  27  27  27   0  27  27  27  27  27  27  27  27  27  27  27   0   0  27  27  27  27  27  27   0  27  27  27  27  27  27  27  27   0  27  27  27  27  27  27  27  27  27   0   0  27  27   0  27  27  27  27  27  27  27  27  27  27  27  27  27  27  27  27  27  27  27  27  27  27  27  27  27  27  27  27  27  27  27   0  27  27  27  27  27  27  27  27   0  27  27  27  27   0  27  27  27  27  27  27  27  27  27  27  27  27  27  27  27  27  27  27  27  27  27  27  27  27  27  27  27  27  27  27  27   0  27   0   0  27  27  27  27  27  27  27   0  27  27  27  27   0  27  27  27  27  27  27  27  27  27  27  27  27   0  27  27  27  27  27  27  27   0  27   0  27  27  27   0  27  27  27  27  27  27  27  27  27  27   0  27  27  27  27  27  27  27  27  27  27  27  27  27  27  27   0  27  27  27  27  27  27  27  27  27  27  27  27  27  27  27  27   0  27  27  27  27  27  27  27  27  27  27  27  27   0  27  27  27  27  27  27  27  27  27  27  27  27   0  27  27  27  27  27  27  27  27  27  27  27  27  27  27  27  27  27  27  27  27  27  27  27  27  27  27  27   0  27  27  27  27  27   0   0  27  27   0  27  27  27  27  27  27  27  27  27  27  27  27  27  27  27  27  27  27  27  27  27  27  27  27  27  27  27  27  27  27  27  27  27  27  27  27  27  27  27  27  27  27  27   0  27  27  27  27   0  27   0  27  27  27  27  27   0  27  27  27  27  27  27  27  27  27  27  27   0  27  27  27  27   0   0   0  27  27   0  27  27  27  27  27  27   0  27  27  27  27  27  27  27  27  27  27  27  27  27  27  27  27  27  27  27  27  27  27  27  27  27  27  27  27  27  27  27  27  27  27  27  27  27  27  27  27   0  27  27  27   0  27  27  27  27  27  27  27  27  27  27  27  27  27   0  27  27  27  27  27  27  27  27  27  27  27  27  27  27  27  27  27  27  27  27  27  27  27  27  27  27  27  27  27  27  27  27  27  27  27  27   0  27  27  27  27   0   0  27   0  27  27  27  27   0  27  27  27   0  27  27  27  27  27  27  27  27  27  27  27  27  27  27  27  27  27  27  27  27  27  27  27  27  27  27  27  27  27  27  27  27  27  27   0  27  27  27  27   0  27  27  27  27  27  27  27  27  27   0  27   0  27  27  27  27  27  27  27  27  27  27  27   0  27  27  27  27  27  27  27  27   0  27  27  27  27  27  27  27  27  27  27  27  27  27   0   0  27  27  27  27  27  27  27  27  27  27  27  27  27  27  27  27  27  27  27  27  27  27  27  27  27  27  27  27  27  27  27  27  27  27   0  27  27  27  27  27  27  27  27  27  27  27  27  27  27   0  27  27  27   0  27  27  27  27  27   0   0  27  27  27  27  27  27   0  27  27   0  27  27  27  27  27  27  27  27  27  27   0  27   0  27   0  27  27  27  27  27  27  27  27  27  27  27  27  27  27  27  27  27  27  27  27  27  27  27  27  27  27  27  27  27  27  27   0  27  27

  32  32  32  32   0  32  32  32  32  32  32  32  32  32  32  32   0   0  32  32  32  32  32  32   0  32  32  32  32  32  32  32  32   0  32  32  32  32  32  32  32  32  32   0   0  32  32   0  32  32  32  32  32  32  32  32  32  32  32  32  32  32  32  32  32  32  32  32  32  32  32  32  32  32  32  32  32  32  32   0  32  32  32  32  32  32  32  32   0  32  32  32  32   0  32  32  32  32  32  32  32  32  32  32  32  32  32  32  32  32  32  32  32  32  32  32  32  32  32  32  32  32  32  32  32   0  32   0   0  32  32  32  32  32  32  32   0  32  32  32  32   0  32  32  32  32  32  32  32  32  32  32  32  32   0  32  32  32  32  32  32  32   0  32   0  32  32  32   0  32  32  32  32  32  32  32  32  32  32   0  32  32  32  32  32  32  32  32  32  32  32  32  32  32  32   0  32  32  32  32  32  32  32  32  32  32  32  32  32  32  32  32   0  32  32  32  32  32  32  32  32  32  32  32  32   0  32  32  32  32  32  32  32  32  32  32  32  32   0  32  32  32  32  32  32  32  32  32  32  32  32  32  32  32  32  32  32  32  32  32  32  32  32  32  32  32   0  32  32  32  32  32   0   0  32  32   0  32  32  32  32  32  32  32  32  32  32  32  32  32  32  32  32  32  32  32  32  32  32  32  32  32  32  32  32  32  32  32  32  32  32  32  32  32  32  32  32  32  32  32   0  32  32  32  32   0  32   0  32  32  32  32  32   0  32  32  32  32  32  32  32  32  32  32  32   0  32  32  32  32   0   0   0  32  32   0  32  32  32  32  32  32   0  32  32  32  32  32  32  32  32  32  32  32  32  32  32  32  32  32  32  32  32  32  32  32  32  32  32  32  32  32  32  32  32  32  32  32  32  32  32  32  32   0  32  32  32   0  32  32  32  32  32  32  32  32  32  32  32  32  32   0  32  32  32  32  32  32  32  32  32  32  32  32  32  32  32  32  32  32  32  32  32  32  32  32  32  32  32  32  32  32  32  32  32  32  32  32   0  32  32  32  32   0   0  32   0  32  32  32  32   0  32  32  32   0  32  32  32  32  32  32  32  32  32  32  32  32  32  32  32  32  32  32  32  32  32  32  32  32  32  32  32  32  32  32  32  32  32  32   0  32  32  32  32   0  32  32  32  32  32  32  32  32  32   0  32   0  32  32  32  32  32  32  32  32  32  32  32   0  32  32  32  32  32  32  32  32   0  32  32  32  32  32  32  32  32  32  32  32  32  32   0   0  32  32  32  32  32  32  32  32  32  32  32  32  32  32  32  32  32  32  32  32  32  32  32  32  32  32  32  32  32  32  32  32  32  32   0  32  32  32  32  32  32  32  32  32  32  32  32  32  32   0  32  32  32   0  32  32  32  32  32   0   0  32  32  32  32  32  32   0  32  32   0  32  32  32  32  32  32  32  32  32  32   0  32   0  32   0  32  32  32  32  32  32  32  32  32  32  32  32  32  32  32  32  32  32  32  32  32  32  32  32  32  32  32  32  32  32  32   0  32  32

  30  30  30  30   0  30  30  30  30  30  30  30  30  30  30  30   0   0  30  30  30  30  30  30   0  30  30  30  30  30  30  30  30   0  30  30  30  30  30  30  30  30  30   0   0  30  30   0  30  30  30  30  30  30  30  30  30  30  30  30  30  30  30  30  30  30  30  30  30  30  30  30  30  30  30  30  30  30  30   0  30  30  30  30  30  30  30  30   0  30  30  30  30   0  30  30  30  30  30  30  30  30  30  30  30  30  30  30  30  30  30  30  30  30  30  30  30  30  30  30  30  30  30  30  30   0  30   0   0  30  30  30  30  30  30  30   0  30  30  30  30   0  30  30  30  30  30  30  30  30  30  30  30  30   0  30  30  30  30  30  30  30   0  30   0  30  30  30   0  30  30  30  30  30  30  30  30  30  30   0  30  30  30  30  30  30  30  30  30  30  30  30  30  30  30   0  30  30  30  30  30  30  30  30  30  30  30  30  30  30  30  30   0  30  30  30  30  30  30  30  30  30  30  30  30   0  30  30  30  30  30  30  30  30  30  30  30  30   0  30  30  30  30  30  30  30  30  30  30  30  30  30  30  30  30  30  30  30  30  30  30  30  30  30  30  30   0  30  30  30  30  30   0   0  30  30   0  30  30  30  30  30  30  30  30  30  30  30  30  30  30  30  30  30  30  30  30  30  30  30  30  30  30  30  30  30  30  30  30  30  30  30  30  30  30  30  30  30  30  30   0  30  30  30  30   0  30   0  30  30  30  30  30   0  30  30  30  30  30  30  30  30  30  30  30   0  30  30  30  30   0   0   0  30  30   0  30  30  30  30  30  30   0  30  30  30  30  30  30  30  30  30  30  30  30  30  30  30  30  30  30  30  30  30  30  30  30  30  30  30  30  30  30  30  30  30  30  30  30  30  30  30  30   0  30  30  30   0  30  30  30  30  30  30  30  30  30  30  30  30  30   0  30  30  30  30  30  30  30  30  30  30  30  30  30  30  30  30  30  30  30  30  30  30  30  30  30  30  30  30  30  30  30  30  30  30  30  30   0  30  30  30  30   0   0  30   0  30  30  30  30   0  30  30  30   0  30  30  30  30  30  30  30  30  30  30  30  30  30  30  30  30  30  30  30  30  30  30  30  30  30  30  30  30  30  30  30  30  30  30   0  30  30  30  30   0  30  30  30  30  30  30  30  30  30   0  30   0  30  30  30  30  30  30  30  30  30  30  30   0  30  30  30  30  30  30  30  30   0  30  30  30  30  30  30  30  30  30  30  30  30  30   0   0  30  30  30  30  30  30  30  30  30  30  30  30  30  30  30  30  30  30  30  30  30  30  30  30  30  30  30  30  30  30  30  30  30  30   0  30  30  30  30  30  30  30  30  30  30  30  30  30  30   0  30  30  30   0  30  30  30  30  30   0   0  30  30  30  30  30  30   0  30  30   0  30  30  30  30  30  30  30  30  30  30   0  30   0  30   0  30  30  30  30  30  30  30  30  30  30  30  30  30  30  30  30  30  30  30  30  30  30  30  30  30  30  30  30  30  30  30   0  30  30

  27  27  27  27   0  27  27  27  27  27  27  27  27  27  27  27   0   0  27  27  27  27  27  27   0  27  27  27  27  27  27  27  27   0  27  27  27  27  27  27  27  27  27   0   0  27  27   0  27  27  27  27  27  27  27  27  27  27  27  27  27  27  27  27  27  27  27  27  27  27  27  27  27  27  27  27  27  27  27   0  27  27  27  27  27  27  27  27   0  27  27  27  27   0  27  27  27  27  27  27  27  27  27  27  27  27  27  27  27  27  27  27  27  27  27  27  27  27  27  27  27  27  27  27  27   0  27   0   0  27  27  27  27  27  27  27   0  27  27  27  27   0  27  27  27  27  27  27  27  27  27  27  27  27   0  27  27  27  27  27  27  27   0  27   0  27  27  27   0  27  27  27  27  27  27  27  27  27  27   0  27  27  27  27  27  27  27  27  27  27  27  27  27  27  27   0  27  27  27  27  27  27  27  27  27  27  27  27  27  27  27  27   0  27  27  27  27  27  27  27  27  27  27  27  27   0  27  27  27  27  27  27  27  27  27  27  27  27   0  27  27  27  27  27  27  27  27  27  27  27  27  27  27  27  27  27  27  27  27  27  27  27  27  27  27  27   0  27  27  27  27  27   0   0  27  27   0  27  27  27  27  27  27  27  27  27  27  27  27  27  27  27  27  27  27  27  27  27  27  27  27  27  27  27  27  27  27  27  27  27  27  27  27  27  27  27  27  27  27  27   0  27  27  27  27   0  27   0  27  27  27  27  27   0  27  27  27  27  27  27  27  27  27  27  27   0  27  27  27  27   0   0   0  27  27   0  27  27  27  27  27  27   0  27  27  27  27  27  27  27  27  27  27  27  27  27  27  27  27  27  27  27  27  27  27  27  27  27  27  27  27  27  27  27  27  27  27  27  27  27  27  27  27   0  27  27  27   0  27  27  27  27  27  27  27  27  27  27  27  27  27   0  27  27  27  27  27  27  27  27  27  27  27  27  27  27  27  27  27  27  27  27  27  27  27  27  27  27  27  27  27  27  27  27  27  27  27  27   0  27  27  27  27   0   0  27   0  27  27  27  27   0  27  27  27   0  27  27  27  27  27  27  27  27  27  27  27  27  27  27  27  27  27  27  27  27  27  27  27  27  27  27  27  27  27  27  27  27  27  27   0  27  27  27  27   0  27  27  27  27  27  27  27  27  27   0  27   0  27  27  27  27  27  27  27  27  27  27  27   0  27  27  27  27  27  27  27  27   0  27  27  27  27  27  27  27  27  27  27  27  27  27   0   0  27  27  27  27  27  27  27  27  27  27  27  27  27  27  27  27  27  27  27  27  27  27  27  27  27  27  27  27  27  27  27  27  27  27   0  27  27  27  27  27  27  27  27  27  27  27  27  27  27   0  27  27  27   0  27  27  27  27  27   0   0  27  27  27  27  27  27   0  27  27   0  27  27  27  27  27  27  27  27  27  27   0  27   0  27   0  27  27  27  27  27  27  27  27  27  27  27  27  27  27  27  27  27  27  27  27  27  27  27  27  27  27  27  27  27  27  27   0  27  27

************************************************************************
